(declare-fun x () String)

(assert (str.in.re x (re.union  (str.to.re "\x4e01") (re.union  (str.to.re "\x4e02") (re.union  (str.to.re "\x4e03") (re.union  (str.to.re "\x4e04") (re.union  (str.to.re "\x4e05") (re.union  (str.to.re "\x4e06") (re.union  (str.to.re "\x4e07") (re.union  (str.to.re "\x4e08") (re.union  (str.to.re "\x4e09") (re.union  (str.to.re "\x4e0a") (re.union  (str.to.re "\x4e0b") (re.union  (str.to.re "\x4e0c") (re.union  (str.to.re "\x4e0d") (re.union  (str.to.re "\x4e0e") (re.union  (str.to.re "\x4e0f") (re.union  (str.to.re "\x4e10") (re.union  (str.to.re "\x4e11") (re.union  (str.to.re "\x4e12") (re.union  (str.to.re "\x4e13") (re.union  (str.to.re "\x4e14") (re.union  (str.to.re "\x4e15") (re.union  (str.to.re "\x4e16") (re.union  (str.to.re "\x4e17") (re.union  (str.to.re "\x4e18") (re.union  (str.to.re "\x4e19") (re.union  (str.to.re "\x4e1a") (re.union  (str.to.re "\x4e1b") (re.union  (str.to.re "\x4e1c") (re.union  (str.to.re "\x4e1d") (re.union  (str.to.re "\x4e1e") (re.union  (str.to.re "\x4e1f") (re.union  (str.to.re "\x4e20") (re.union  (str.to.re "\x4e21") (re.union  (str.to.re "\x4e22") (re.union  (str.to.re "\x4e23") (re.union  (str.to.re "\x4e24") (re.union  (str.to.re "\x4e25") (re.union  (str.to.re "\x4e26") (re.union  (str.to.re "\x4e27") (re.union  (str.to.re "\x4e28") (re.union  (str.to.re "\x4e29") (re.union  (str.to.re "\x4e2a") (re.union  (str.to.re "\x4e2b") (re.union  (str.to.re "\x4e2c") (re.union  (str.to.re "\x4e2d") (re.union  (str.to.re "\x4e2e") (re.union  (str.to.re "\x4e2f") (re.union  (str.to.re "\x4e30") (re.union  (str.to.re "\x4e31") (re.union  (str.to.re "\x4e32") (re.union  (str.to.re "\x4e33") (re.union  (str.to.re "\x4e34") (re.union  (str.to.re "\x4e35") (re.union  (str.to.re "\x4e36") (re.union  (str.to.re "\x4e37") (re.union  (str.to.re "\x4e38") (re.union  (str.to.re "\x4e39") (re.union  (str.to.re "\x4e3a") (re.union  (str.to.re "\x4e3b") (re.union  (str.to.re "\x4e3c") (re.union  (str.to.re "\x4e3d") (re.union  (str.to.re "\x4e3e") (re.union  (str.to.re "\x4e3f") (re.union  (str.to.re "\x4e40") (re.union  (str.to.re "\x4e41") (re.union  (str.to.re "\x4e42") (re.union  (str.to.re "\x4e43") (re.union  (str.to.re "\x4e44") (re.union  (str.to.re "\x4e45") (re.union  (str.to.re "\x4e46") (re.union  (str.to.re "\x4e47") (re.union  (str.to.re "\x4e48") (re.union  (str.to.re "\x4e49") (re.union  (str.to.re "\x4e4a") (re.union  (str.to.re "\x4e4b") (re.union  (str.to.re "\x4e4c") (re.union  (str.to.re "\x4e4d") (re.union  (str.to.re "\x4e4e") (re.union  (str.to.re "\x4e4f") (re.union  (str.to.re "\x4e50") (re.union  (str.to.re "\x4e51") (re.union  (str.to.re "\x4e52") (re.union  (str.to.re "\x4e53") (re.union  (str.to.re "\x4e54") (re.union  (str.to.re "\x4e55") (re.union  (str.to.re "\x4e56") (re.union  (str.to.re "\x4e57") (re.union  (str.to.re "\x4e58") (re.union  (str.to.re "\x4e59") (re.union  (str.to.re "\x4e5a") (re.union  (str.to.re "\x4e5b") (re.union  (str.to.re "\x4e5c") (re.union (re.+  (str.to.re "\x4e5d") )  (str.to.re "\x4e5e"))))))))))))))))))))))))))))))))))))))))))))))))))))))))))))))))))))))))))))))))))))))))))))))))
(assert (str.in.re x (re.++  (str.to.re "\x4e01") (re.++  (str.to.re "\x4e02") (re.++  (str.to.re "\x4e03") (re.++  (str.to.re "\x4e04") (re.++  (str.to.re "\x4e05") (re.++  (str.to.re "\x4e06") (re.++  (str.to.re "\x4e07") (re.++  (str.to.re "\x4e08") (re.++  (str.to.re "\x4e09") (re.++  (str.to.re "\x4e0a") (re.++  (str.to.re "\x4e0b") (re.++  (str.to.re "\x4e0c") (re.++  (str.to.re "\x4e0d") (re.++  (str.to.re "\x4e0e") (re.++  (str.to.re "\x4e0f") (re.++  (str.to.re "\x4e10") (re.++  (str.to.re "\x4e11") (re.++  (str.to.re "\x4e12") (re.++  (str.to.re "\x4e13") (re.++  (str.to.re "\x4e14") (re.++  (str.to.re "\x4e15") (re.++  (str.to.re "\x4e16") (re.++  (str.to.re "\x4e17") (re.++  (str.to.re "\x4e18") (re.++  (str.to.re "\x4e19") (re.++  (str.to.re "\x4e1a") (re.++  (str.to.re "\x4e1b") (re.++  (str.to.re "\x4e1c") (re.++  (str.to.re "\x4e1d") (re.++  (str.to.re "\x4e1e") (re.++  (str.to.re "\x4e1f") (re.++  (str.to.re "\x4e20") (re.++  (str.to.re "\x4e21") (re.++  (str.to.re "\x4e22") (re.++  (str.to.re "\x4e23") (re.++  (str.to.re "\x4e24") (re.++  (str.to.re "\x4e25") (re.++  (str.to.re "\x4e26") (re.++  (str.to.re "\x4e27") (re.++  (str.to.re "\x4e28") (re.++  (str.to.re "\x4e29") (re.++  (str.to.re "\x4e2a") (re.++  (str.to.re "\x4e2b") (re.++  (str.to.re "\x4e2c") (re.++  (str.to.re "\x4e2d") (re.++  (str.to.re "\x4e2e") (re.++  (str.to.re "\x4e2f") (re.++  (str.to.re "\x4e30") (re.++  (str.to.re "\x4e31") (re.++  (str.to.re "\x4e32") (re.++  (str.to.re "\x4e33") (re.++  (str.to.re "\x4e34") (re.++  (str.to.re "\x4e35") (re.++  (str.to.re "\x4e36") (re.++  (str.to.re "\x4e37") (re.++  (str.to.re "\x4e38") (re.++  (str.to.re "\x4e39") (re.++  (str.to.re "\x4e3a") (re.++  (str.to.re "\x4e3b") (re.++  (str.to.re "\x4e3c") (re.++  (str.to.re "\x4e3d") (re.++  (str.to.re "\x4e3e") (re.++  (str.to.re "\x4e3f") (re.++  (str.to.re "\x4e40") (re.++  (str.to.re "\x4e41") (re.++  (str.to.re "\x4e42") (re.++  (str.to.re "\x4e43") (re.++  (str.to.re "\x4e44") (re.++  (str.to.re "\x4e45") (re.++  (str.to.re "\x4e46") (re.++  (str.to.re "\x4e47") (re.++  (str.to.re "\x4e48") (re.++  (str.to.re "\x4e49") (re.++  (str.to.re "\x4e4a") (re.++  (str.to.re "\x4e4b") (re.++  (str.to.re "\x4e4c") (re.++  (str.to.re "\x4e4d") (re.++  (str.to.re "\x4e4e") (re.++  (str.to.re "\x4e4f") (re.++  (str.to.re "\x4e50") (re.++  (str.to.re "\x4e51") (re.++  (str.to.re "\x4e52") (re.++  (str.to.re "\x4e53") (re.++  (str.to.re "\x4e54") (re.++  (str.to.re "\x4e55") (re.++  (str.to.re "\x4e56") (re.++  (str.to.re "\x4e57") (re.++  (str.to.re "\x4e58") (re.++  (str.to.re "\x4e59") (re.++  (str.to.re "\x4e5a") (re.++  (str.to.re "\x4e5b") (re.++  (str.to.re "\x4e5c") (re.++  (str.to.re "\x4e5d") (re.++  (str.to.re "\x4e5e") (re.++  (str.to.re "\x4e5f") (re.++  (str.to.re "\x4e60") (re.++  (str.to.re "\x4e61") (re.++  (str.to.re "\x4e62") (re.++  (str.to.re "\x4e63") (re.++  (str.to.re "\x4e64") (re.++  (str.to.re "\x4e65") (re.++  (str.to.re "\x4e66") (re.++  (str.to.re "\x4e67") (re.++  (str.to.re "\x4e68") (re.++  (str.to.re "\x4e69") (re.++  (str.to.re "\x4e6a") (re.++  (str.to.re "\x4e6b") (re.++  (str.to.re "\x4e6c") (re.++  (str.to.re "\x4e6d") (re.++  (str.to.re "\x4e6e") (re.++  (str.to.re "\x4e6f") (re.++  (str.to.re "\x4e70") (re.++  (str.to.re "\x4e71") (re.++  (str.to.re "\x4e72") (re.++  (str.to.re "\x4e73") (re.++  (str.to.re "\x4e74") (re.++  (str.to.re "\x4e75") (re.++  (str.to.re "\x4e76") (re.++  (str.to.re "\x4e77") (re.++  (str.to.re "\x4e78") (re.++  (str.to.re "\x4e79") (re.++  (str.to.re "\x4e7a") (re.++  (str.to.re "\x4e7b") (re.++  (str.to.re "\x4e7c") (re.++  (str.to.re "\x4e7d") (re.++  (str.to.re "\x4e7e") (re.++  (str.to.re "\x4e7f") (re.++  (str.to.re "\x4e80") (re.++  (str.to.re "\x4e81") (re.++  (str.to.re "\x4e82") (re.++  (str.to.re "\x4e83") (re.++  (str.to.re "\x4e84") (re.++  (str.to.re "\x4e85") (re.++  (str.to.re "\x4e86") (re.++  (str.to.re "\x4e87") (re.++  (str.to.re "\x4e88") (re.++  (str.to.re "\x4e89") (re.++  (str.to.re "\x4e8a") (re.++  (str.to.re "\x4e8b") (re.++  (str.to.re "\x4e8c") (re.++  (str.to.re "\x4e8d") (re.++  (str.to.re "\x4e8e") (re.++  (str.to.re "\x4e8f") (re.++  (str.to.re "\x4e90") (re.++  (str.to.re "\x4e91") (re.++  (str.to.re "\x4e92") (re.++  (str.to.re "\x4e93") (re.++  (str.to.re "\x4e94") (re.++  (str.to.re "\x4e95") (re.++  (str.to.re "\x4e96") (re.++  (str.to.re "\x4e97") (re.++  (str.to.re "\x4e98") (re.++  (str.to.re "\x4e99") (re.++  (str.to.re "\x4e9a") (re.++  (str.to.re "\x4e9b") (re.++  (str.to.re "\x4e9c") (re.++  (str.to.re "\x4e9d") (re.++  (str.to.re "\x4e9e") (re.++  (str.to.re "\x4e9f") (re.++  (str.to.re "\x4ea0") (re.++  (str.to.re "\x4ea1") (re.++  (str.to.re "\x4ea2") (re.++  (str.to.re "\x4ea3") (re.++  (str.to.re "\x4ea4") (re.++  (str.to.re "\x4ea5") (re.++  (str.to.re "\x4ea6") (re.++  (str.to.re "\x4ea7") (re.++  (str.to.re "\x4ea8") (re.++  (str.to.re "\x4ea9") (re.++  (str.to.re "\x4eaa") (re.++  (str.to.re "\x4eab") (re.++  (str.to.re "\x4eac") (re.++  (str.to.re "\x4ead") (re.++  (str.to.re "\x4eae") (re.++  (str.to.re "\x4eaf") (re.++  (str.to.re "\x4eb0") (re.++  (str.to.re "\x4eb1") (re.++  (str.to.re "\x4eb2") (re.++  (str.to.re "\x4eb3") (re.++  (str.to.re "\x4eb4") (re.++  (str.to.re "\x4eb5") (re.++  (str.to.re "\x4eb6") (re.++  (str.to.re "\x4eb7") (re.++  (str.to.re "\x4eb8") (re.++  (str.to.re "\x4eb9") (re.++  (str.to.re "\x4eba") (re.++  (str.to.re "\x4ebb") (re.++  (str.to.re "\x4ebc") (re.++  (str.to.re "\x4ebd") (re.++  (str.to.re "\x4ebe") (re.++  (str.to.re "\x4ebf") (re.++  (str.to.re "\x4ec0") (re.++  (str.to.re "\x4ec1") (re.++  (str.to.re "\x4ec2") (re.++  (str.to.re "\x4ec3") (re.++  (str.to.re "\x4ec4") (re.++  (str.to.re "\x4ec5") (re.++  (str.to.re "\x4ec6") (re.++  (str.to.re "\x4ec7") (re.++  (str.to.re "\x4ec8") (re.++  (str.to.re "\x4ec9") (re.++  (str.to.re "\x4eca") (re.++  (str.to.re "\x4ecb") (re.++  (str.to.re "\x4ecc") (re.++  (str.to.re "\x4ecd") (re.++  (str.to.re "\x4ece") (re.++  (str.to.re "\x4ecf") (re.++  (str.to.re "\x4ed0") (re.++  (str.to.re "\x4ed1") (re.++  (str.to.re "\x4ed2") (re.++  (str.to.re "\x4ed3") (re.++  (str.to.re "\x4ed4") (re.++  (str.to.re "\x4ed5") (re.++  (str.to.re "\x4ed6") (re.++  (str.to.re "\x4ed7") (re.++  (str.to.re "\x4ed8") (re.++  (str.to.re "\x4ed9") (re.++  (str.to.re "\x4eda") (re.++  (str.to.re "\x4edb") (re.++  (str.to.re "\x4edc") (re.++  (str.to.re "\x4edd") (re.++  (str.to.re "\x4ede") (re.++  (str.to.re "\x4edf") (re.++  (str.to.re "\x4ee0") (re.++  (str.to.re "\x4ee1") (re.++  (str.to.re "\x4ee2") (re.++  (str.to.re "\x4ee3") (re.++  (str.to.re "\x4ee4") (re.++  (str.to.re "\x4ee5") (re.++  (str.to.re "\x4ee6")  (str.to.re "\x4ee7")))))))))))))))))))))))))))))))))))))))))))))))))))))))))))))))))))))))))))))))))))))))))))))))))))))))))))))))))))))))))))))))))))))))))))))))))))))))))))))))))))))))))))))))))))))))))))))))))))))))))))))))))))))))))))))))))))))))))
(check-sat)
(get-model)